results/x-long/X-n162-k11.vrp_seed-44.out
14150	1133
