results/x-long/X-n162-k11.vrp_seed-44.vrp.sol
Route #1: 15 139 126 138 133 107 122 84 160 85 121 147 159 135 72
Route #2: 79 20 67 62 114 95 129 88 106 100 31 140 154 111 80
Route #3: 59 156 115 141 119 144 105 10 29
Route #4: 143 153 110 128 124 134 148 109 2 82 118 30 157 112 40 103
Route #5: 136 91 158 108 137 39 146 151 101 4 87 132 93 125 92 155
Route #6: 52 116 102 96 142 43 123 56 66 94 36 35 99 130 86 53
Route #7: 78 22 34 7 75 44 19 18 64 3 33 42 46 61 8 54
Route #8: 74 81 120 5 16 32 57 131 37 71 13 6 49 24 23
Route #9: 127 17 149 89 14 1 55 60 21 9 27 117 97 77 161
Route #10: 76 41 69 65 51 12 70 113 63 104 83 98 47 25
Route #11: 150 90 145 68 58 38 73 11 48 26 28 152 45 50
Cost 14150.000000